\ LP format - for model browsing. Use MPS format to capture full model detail.
Minimize
  - 2 x0 - x1
Subject To
 constr(0): 3 x0 + 3 x1 <= 9
 constr(1): - 2 x0 + 5 x1 <= 10
 constr(2): 4 x0 + 5 x1 = 5
 constr(3): 5 x0 + 4 x1 >= -8
Bounds
 x0 <= 2
 x1 <= 3
Generals
 x0 x1
End
